%NProcShared=24
%Chk=wat_opt.chk
#P B3LYP/6-31G(d) Opt

 Opt water test py

0 1
O          0.18728        2.12115        0.00000
H          1.15728        2.12115        0.00000
H         -0.13605        2.72437        0.68737

